JulietBench/Juliet_Based_Patch_Bench/qemu/CWE-190-Integer-Overflow-or-Wraparound/CVE_2014_0143_8f4754ede56e3f9ea3fd7207f4a7c4453e59285b/solverbdrv_check_byte_request_Snippet_patch2.smt2
; benchmark generated from python API
(set-info :status unknown)
(declare-fun R () (_ BitVec 32))
(declare-fun rdi () (_ BitVec 64))
(assert
 (let (($x38 (and (distinct (_ bv512 32) R) true)))
 (let ((?x29 ((_ extract 22 0) rdi)))
 (let ((?x30 (concat ?x29 (_ bv0 9))))
 (let (($x39 (and (distinct R ?x30) true)))
 (let (($x37 (and $x39 $x38)))
 (let (($x40 (= (_ bv512 32) R)))
 (let (($x33 (= R ?x30)))
 (let (($x27 (and $x33 $x40)))
 (let (($x36 (or $x27 $x37)))
 (not $x36)))))))))))
(check-sat)
